
-18.5
-8.9
-8.7
-8.5
-8.4
-8.4
-8.2
-8.2
-8.0
-7.9
-7.9
-7.9
-7.9
-7.8
-7.8
-7.6
-7.6
-7.6
-7.6
-7.5
-7.5
-7.5
-7.5
-7.5
-7.5
-7.5
-7.5
-7.5
-7.5
-7.5
-7.5
-7.5
-7.5
-7.5
-7.5
-7.5
-7.5
-7.5
-7.5
-7.5
-13.3
-8.5
-8.4
-8.3
-8.15
-8.15
-8.0
-8.0
-7.9
-7.9
-7.9
-7.8
-7.8
-7.8
-7.8
-7.8
-7.8
-7.8
-7.8
-7.8
-7.8
-7.8
-7.8
-7.8
-7.8
-8.4
-8.0
-7.85
-7.85
-7.85
-7.7
-7.65
-7.65
-7.65
-7.5
-7.5
-7.5
-7.5
-7.45
-7.35
-7.35
-7.35
-7.35
-7.3
-7.3
-7.3
-7.3
-7.3
-7.25
-7.25
-7.25
-7.25
-7.25
-7.25
-7.25
-7.25
-7.25
-7.25
-7.25
-7.25
-7.25
-7.25
-7.25
-7.25